0 3802
2401 3667
4802 3577
7203 3495
9604 3438
12005 3388
14406 3332
16807 3316
19208 3292
21609 3251
24010 3232
26411 3224
28812 3212
31213 3199
33614 3195
36015 3173
38416 3168
40817 3153
43218 3149
45619 3129
48020 3126
304927 3123
307328 3113
309729 3109
312130 3103
314531 3096
432180 3094
506611 3092
557032 3090
559433 3080
561834 3076
564235 3075
566636 3070
